; SLOAD DUP2 SWAP1 DUP2 SWAP1 => DUP2 DUP3 SWAP2 SLOAD
(set-option :produce-proofs true)
; 
(set-info :status unknown)
(declare-fun storage_t ((_ BitVec 256) (_ BitVec 256) (_ BitVec 256) Int (_ BitVec 256)) (_ BitVec 256))
(declare-fun storage_s ((_ BitVec 256) (_ BitVec 256) (_ BitVec 256) Int (_ BitVec 256)) (_ BitVec 256))
(declare-fun exc_halt_t (Int) Bool)
(declare-fun exc_halt_s (Int) Bool)
(declare-fun sc_t (Int) (_ BitVec 6))
(declare-fun stack_t ((_ BitVec 256) (_ BitVec 256) (_ BitVec 256) Int (_ BitVec 6)) (_ BitVec 256))
(declare-fun stack_s ((_ BitVec 256) (_ BitVec 256) (_ BitVec 256) Int (_ BitVec 6)) (_ BitVec 256))
(declare-fun sc_s (Int) (_ BitVec 6))
(declare-fun used_gas_t ((_ BitVec 256) (_ BitVec 256) (_ BitVec 256) Int) Int)
(declare-fun used_gas_s ((_ BitVec 256) (_ BitVec 256) (_ BitVec 256) Int) Int)
(assert
 (exists ((x_0 (_ BitVec 256)) (x_1 (_ BitVec 256)) (x_SLOAD_0 (_ BitVec 256)) )(let (($x4253 (forall ((w (_ BitVec 256)) )(let ((?x10273 (storage_t x_0 x_1 x_SLOAD_0 4 w)))
 (let ((?x2855 (storage_s x_0 x_1 x_SLOAD_0 5 w)))
 (= ?x2855 ?x10273))))
 ))
 (let (($x7854 (exc_halt_t 4)))
 (let (($x11317 (exc_halt_s 5)))
 (let (($x1631 (= $x11317 $x7854)))
 (let (($x6653 (forall ((n (_ BitVec 6)) )(let ((?x1824 (stack_t x_0 x_1 x_SLOAD_0 4 n)))
 (let ((?x7441 (stack_s x_0 x_1 x_SLOAD_0 5 n)))
 (let (($x1125 (= ?x7441 ?x1824)))
 (or $x1125 (bvsle (sc_t 4) n))))))
 ))
 (let ((?x4818 (sc_t 4)))
 (let ((?x4319 (sc_s 5)))
 (let (($x5702 (= ?x4319 ?x4818)))
 (let ((?x9715 (used_gas_t x_0 x_1 x_SLOAD_0 0)))
 (let ((?x6693 (used_gas_s x_0 x_1 x_SLOAD_0 0)))
 (let (($x9266 (= ?x6693 ?x9715)))
 (let (($x192 (forall ((w (_ BitVec 256)) )(let ((?x1976 (storage_t x_0 x_1 x_SLOAD_0 0 w)))
 (let ((?x2672 (storage_s x_0 x_1 x_SLOAD_0 0 w)))
 (= ?x2672 ?x1976))))
 ))
 (let (($x56 (exc_halt_t 0)))
 (let (($x57 (exc_halt_s 0)))
 (let (($x58 (= $x57 $x56)))
 (let (($x80 (forall ((n (_ BitVec 6)) )(let ((?x63 (sc_t 0)))
 (let (($x7673 (bvsle ?x63 n)))
 (let ((?x8040 (stack_t x_0 x_1 x_SLOAD_0 0 n)))
 (let ((?x4465 (stack_s x_0 x_1 x_SLOAD_0 0 n)))
 (let (($x330 (= ?x4465 ?x8040)))
 (or $x330 $x7673)))))))
 ))
 (let ((?x63 (sc_t 0)))
 (let ((?x72 (sc_s 0)))
 (let (($x73 (= ?x72 ?x63)))
 (let (($x11257 (= $x7854 (or (exc_halt_t 3) (not (bvsle (_ bv0 6) (bvadd (_ bv63 6) (sc_t 3))))))))
 (let (($x1924 (forall ((w (_ BitVec 256)) )(let ((?x11574 (storage_t x_0 x_1 x_SLOAD_0 3 w)))
 (let ((?x10273 (storage_t x_0 x_1 x_SLOAD_0 4 w)))
 (= ?x10273 ?x11574))))
 ))
 (let (($x2943 (forall ((n (_ BitVec 6)) )(let ((?x7074 (stack_t x_0 x_1 x_SLOAD_0 3 n)))
 (let ((?x1824 (stack_t x_0 x_1 x_SLOAD_0 4 n)))
 (or (= ?x1824 ?x7074) (bvsle (bvadd (_ bv63 6) (sc_t 3)) n)))))
 ))
 (let (($x4862 (= (used_gas_t x_0 x_1 x_SLOAD_0 4) (+ 200 (used_gas_t x_0 x_1 x_SLOAD_0 3)))))
 (let ((?x11304 (sc_t 3)))
 (let ((?x3894 (bvadd (_ bv63 6) ?x11304)))
 (let ((?x11539 (stack_t x_0 x_1 x_SLOAD_0 3 ?x3894)))
 (let (($x880 (= (stack_t x_0 x_1 x_SLOAD_0 4 (bvadd (_ bv63 6) ?x4818)) (storage_t x_0 x_1 x_SLOAD_0 3 ?x11539))))
 (let (($x3614 (exc_halt_t 3)))
 (let (($x5962 (= $x3614 (or (exc_halt_t 2) (not (bvsle (_ bv0 6) (bvadd (_ bv61 6) (sc_t 2))))))))
 (let (($x2281 (forall ((w (_ BitVec 256)) )(let ((?x10235 (storage_t x_0 x_1 x_SLOAD_0 2 w)))
 (let ((?x11574 (storage_t x_0 x_1 x_SLOAD_0 3 w)))
 (= ?x11574 ?x10235))))
 ))
 (let (($x886 (forall ((n (_ BitVec 6)) )(let ((?x10786 (stack_t x_0 x_1 x_SLOAD_0 2 n)))
 (let ((?x7074 (stack_t x_0 x_1 x_SLOAD_0 3 n)))
 (or (= ?x7074 ?x10786) (bvsle (bvadd (_ bv61 6) (sc_t 2)) n)))))
 ))
 (let ((?x6158 (sc_t 2)))
 (let (($x10269 (= ?x11304 ?x6158)))
 (let ((?x28 (used_gas_t x_0 x_1 x_SLOAD_0 3)))
 (let (($x5663 (= (stack_t x_0 x_1 x_SLOAD_0 3 (bvadd (_ bv62 6) ?x11304)) (stack_t x_0 x_1 x_SLOAD_0 2 (bvadd (_ bv62 6) ?x6158)))))
 (let ((?x10639 (bvadd (_ bv63 6) ?x6158)))
 (let ((?x5277 (stack_t x_0 x_1 x_SLOAD_0 2 ?x10639)))
 (let (($x8377 (exc_halt_t 1)))
 (let (($x4195 (not (= ((_ extract 6 6) (bvadd (_ bv1 7) (concat (_ bv0 1) (sc_t 1)))) (_ bv0 1)))))
 (let (($x3470 (exc_halt_t 2)))
 (let (($x11073 (forall ((w (_ BitVec 256)) )(let ((?x6835 (storage_t x_0 x_1 x_SLOAD_0 1 w)))
 (let ((?x10235 (storage_t x_0 x_1 x_SLOAD_0 2 w)))
 (= ?x10235 ?x6835))))
 ))
 (let (($x4221 (forall ((n (_ BitVec 6)) )(let ((?x6257 (stack_t x_0 x_1 x_SLOAD_0 1 n)))
 (let ((?x10786 (stack_t x_0 x_1 x_SLOAD_0 2 n)))
 (or (= ?x10786 ?x6257) (bvsle (bvadd (_ bv61 6) (sc_t 1)) n)))))
 ))
 (let (($x2783 (= ?x6158 (bvadd (_ bv1 6) (sc_t 1)))))
 (let ((?x4979 (used_gas_t x_0 x_1 x_SLOAD_0 2)))
 (let ((?x7154 (sc_t 1)))
 (let ((?x6967 (bvadd (_ bv63 6) ?x7154)))
 (let ((?x8861 (stack_t x_0 x_1 x_SLOAD_0 1 ?x6967)))
 (let (($x11846 (= (stack_t x_0 x_1 x_SLOAD_0 2 (bvadd (_ bv62 6) ?x7154)) (stack_t x_0 x_1 x_SLOAD_0 1 (bvadd (_ bv62 6) ?x7154)))))
 (let ((?x549 (bvadd (_ bv61 6) ?x7154)))
 (let ((?x4526 (stack_t x_0 x_1 x_SLOAD_0 1 ?x549)))
 (let (($x7311 (not (= ((_ extract 6 6) (bvadd (_ bv1 7) (concat (_ bv0 1) ?x63))) (_ bv0 1)))))
 (let (($x11429 (forall ((w (_ BitVec 256)) )(let ((?x1976 (storage_t x_0 x_1 x_SLOAD_0 0 w)))
 (let ((?x6835 (storage_t x_0 x_1 x_SLOAD_0 1 w)))
 (= ?x6835 ?x1976))))
 ))
 (let (($x4149 (forall ((n (_ BitVec 6)) )(let ((?x8040 (stack_t x_0 x_1 x_SLOAD_0 0 n)))
 (let ((?x6257 (stack_t x_0 x_1 x_SLOAD_0 1 n)))
 (or (= ?x6257 ?x8040) (bvsle (bvadd (_ bv62 6) (sc_t 0)) n)))))
 ))
 (let (($x3228 (= ?x7154 (bvadd (_ bv1 6) ?x63))))
 (let (($x4984 (= (stack_t x_0 x_1 x_SLOAD_0 1 (bvadd (_ bv63 6) ?x63)) (stack_t x_0 x_1 x_SLOAD_0 0 (bvadd (_ bv63 6) ?x63)))))
 (let ((?x1388 (bvadd (_ bv62 6) ?x63)))
 (let ((?x6558 (stack_t x_0 x_1 x_SLOAD_0 0 ?x1388)))
 (let (($x6052 (= $x11317 (or (exc_halt_s 4) (not (bvsle (_ bv0 6) (bvadd (_ bv62 6) (sc_s 4))))))))
 (let (($x6570 (forall ((w (_ BitVec 256)) )(let ((?x3881 (storage_s x_0 x_1 x_SLOAD_0 4 w)))
 (let ((?x2855 (storage_s x_0 x_1 x_SLOAD_0 5 w)))
 (= ?x2855 ?x3881))))
 ))
 (let (($x9924 (forall ((n (_ BitVec 6)) )(let ((?x1159 (stack_s x_0 x_1 x_SLOAD_0 4 n)))
 (let ((?x7441 (stack_s x_0 x_1 x_SLOAD_0 5 n)))
 (or (= ?x7441 ?x1159) (bvsle (bvadd (_ bv62 6) (sc_s 4)) n)))))
 ))
 (let ((?x4305 (sc_s 4)))
 (let (($x9960 (= ?x4319 ?x4305)))
 (let (($x9402 (= (used_gas_s x_0 x_1 x_SLOAD_0 5) (+ 3 (used_gas_s x_0 x_1 x_SLOAD_0 4)))))
 (let ((?x11664 (bvadd (_ bv63 6) ?x4305)))
 (let ((?x3062 (stack_s x_0 x_1 x_SLOAD_0 4 ?x11664)))
 (let (($x3631 (= (stack_s x_0 x_1 x_SLOAD_0 5 (bvadd (_ bv63 6) ?x4319)) (stack_s x_0 x_1 x_SLOAD_0 4 (bvadd (_ bv62 6) ?x4305)))))
 (let (($x3337 (not (bvsle (_ bv0 6) (bvadd (_ bv62 6) (sc_s 3))))))
 (let (($x292 (exc_halt_s 3)))
 (let (($x6872 (or $x292 $x3337 (not (= ((_ extract 6 6) (bvadd (_ bv1 7) (concat (_ bv0 1) (sc_s 3)))) (_ bv0 1))))))
 (let (($x7172 (exc_halt_s 4)))
 (let (($x6378 (forall ((w (_ BitVec 256)) )(let ((?x8054 (storage_s x_0 x_1 x_SLOAD_0 3 w)))
 (let ((?x3881 (storage_s x_0 x_1 x_SLOAD_0 4 w)))
 (= ?x3881 ?x8054))))
 ))
 (let (($x7970 (forall ((n (_ BitVec 6)) )(let ((?x6734 (stack_s x_0 x_1 x_SLOAD_0 3 n)))
 (let ((?x1159 (stack_s x_0 x_1 x_SLOAD_0 4 n)))
 (let ((?x275 (sc_s 3)))
 (let ((?x11384 (bvadd (_ bv62 6) ?x275)))
 (let (($x2042 (bvsle ?x11384 n)))
 (or $x2042 (= ?x1159 ?x6734))))))))
 ))
 (let ((?x2039 (used_gas_s x_0 x_1 x_SLOAD_0 4)))
 (let ((?x275 (sc_s 3)))
 (let ((?x1344 (bvadd (_ bv63 6) ?x275)))
 (let ((?x10424 (stack_s x_0 x_1 x_SLOAD_0 3 ?x1344)))
 (let ((?x11384 (bvadd (_ bv62 6) ?x275)))
 (let ((?x2962 (stack_s x_0 x_1 x_SLOAD_0 3 ?x11384)))
 (let (($x7648 (= $x292 (or (exc_halt_s 2) (not (bvsle (_ bv0 6) (bvadd (_ bv62 6) (sc_s 2))))))))
 (let (($x705 (forall ((w (_ BitVec 256)) )(let ((?x4839 (storage_s x_0 x_1 x_SLOAD_0 2 w)))
 (let ((?x8054 (storage_s x_0 x_1 x_SLOAD_0 3 w)))
 (= ?x8054 ?x4839))))
 ))
 (let (($x215 (forall ((n (_ BitVec 6)) )(let ((?x3599 (stack_s x_0 x_1 x_SLOAD_0 2 n)))
 (let ((?x6734 (stack_s x_0 x_1 x_SLOAD_0 3 n)))
 (let (($x7903 (= ?x6734 ?x3599)))
 (or $x7903 (bvsle (bvadd (_ bv62 6) (sc_s 2)) n))))))
 ))
 (let ((?x10820 (used_gas_s x_0 x_1 x_SLOAD_0 3)))
 (let (($x6759 (not (= ((_ extract 6 6) (bvadd (_ bv1 7) (concat (_ bv0 1) (sc_s 1)))) (_ bv0 1)))))
 (let (($x189 (exc_halt_s 1)))
 (let (($x247 (exc_halt_s 2)))
 (let (($x9964 (forall ((w (_ BitVec 256)) )(let ((?x7571 (storage_s x_0 x_1 x_SLOAD_0 1 w)))
 (let ((?x4839 (storage_s x_0 x_1 x_SLOAD_0 2 w)))
 (= ?x4839 ?x7571))))
 ))
 (let (($x9308 (forall ((n (_ BitVec 6)) )(let ((?x7675 (stack_s x_0 x_1 x_SLOAD_0 1 n)))
 (let ((?x3599 (stack_s x_0 x_1 x_SLOAD_0 2 n)))
 (let (($x1424 (= ?x3599 ?x7675)))
 (or $x1424 (bvsle (bvadd (_ bv62 6) (sc_s 1)) n))))))
 ))
 (let ((?x218 (sc_s 2)))
 (let (($x6266 (= ?x218 (bvadd (_ bv1 6) (sc_s 1)))))
 (let ((?x9457 (used_gas_s x_0 x_1 x_SLOAD_0 2)))
 (let (($x449 (= ?x9457 (+ 3 (used_gas_s x_0 x_1 x_SLOAD_0 1)))))
 (let ((?x154 (sc_s 1)))
 (let ((?x174 (bvadd (_ bv63 6) ?x154)))
 (let ((?x1665 (stack_s x_0 x_1 x_SLOAD_0 1 ?x174)))
 (let ((?x9694 (bvadd (_ bv62 6) ?x154)))
 (let ((?x10142 (stack_s x_0 x_1 x_SLOAD_0 1 ?x9694)))
 (let (($x759 (forall ((w (_ BitVec 256)) )(let ((?x2672 (storage_s x_0 x_1 x_SLOAD_0 0 w)))
 (let ((?x7571 (storage_s x_0 x_1 x_SLOAD_0 1 w)))
 (= ?x7571 ?x2672))))
 ))
 (let (($x4557 (forall ((n (_ BitVec 6)) )(let ((?x4465 (stack_s x_0 x_1 x_SLOAD_0 0 n)))
 (let ((?x7675 (stack_s x_0 x_1 x_SLOAD_0 1 n)))
 (let (($x6355 (= ?x7675 ?x4465)))
 (or $x6355 (bvsle (bvadd (_ bv63 6) (sc_s 0)) n))))))
 ))
 (let ((?x8800 (bvadd (_ bv63 6) ?x72)))
 (let ((?x3379 (stack_s x_0 x_1 x_SLOAD_0 0 ?x8800)))
 (let (($x3717 (forall ((w (_ BitVec 256)) )(let ((?x2927 (ite (= w (stack_s x_0 x_1 x_SLOAD_0 0 (bvadd (_ bv63 6) (sc_s 0)))) x_SLOAD_0 (_ bv0 256))))
 (let ((?x2672 (storage_s x_0 x_1 x_SLOAD_0 0 w)))
 (= ?x2672 ?x2927))))
 ))
 (let (($x8681 (= ?x6693 0)))
 (let (($x7303 (not $x57)))
 (let (($x8063 (= (stack_s x_0 x_1 x_SLOAD_0 0 (_ bv1 6)) x_1)))
 (let (($x8624 (= (stack_s x_0 x_1 x_SLOAD_0 0 (_ bv0 6)) x_0)))
 (let (($x11128 (= ?x72 (_ bv2 6))))
 (and $x11128 $x8624 $x8063 $x7303 $x8681 $x3717 (= ?x1665 (storage_s x_0 x_1 x_SLOAD_0 0 ?x3379)) (= (used_gas_s x_0 x_1 x_SLOAD_0 1) (+ 200 ?x6693)) (= ?x154 ?x72) $x4557 $x759 (= $x189 (or $x57 (not (bvsle (_ bv0 6) ?x8800)))) (= (stack_s x_0 x_1 x_SLOAD_0 2 (bvadd (_ bv63 6) ?x218)) ?x10142) (= (stack_s x_0 x_1 x_SLOAD_0 2 ?x9694) ?x10142) (= (stack_s x_0 x_1 x_SLOAD_0 2 ?x174) ?x1665) $x449 $x6266 $x9308 $x9964 (= $x247 (or $x189 (not (bvsle (_ bv0 6) ?x9694)) $x6759)) (= ?x10424 (stack_s x_0 x_1 x_SLOAD_0 2 (bvadd (_ bv62 6) ?x218))) (= ?x2962 (stack_s x_0 x_1 x_SLOAD_0 2 (bvadd (_ bv63 6) ?x218))) (= ?x10820 (+ 3 ?x9457)) (= ?x275 ?x218) $x215 $x705 $x7648 (= ?x3062 ?x2962) (= (stack_s x_0 x_1 x_SLOAD_0 4 ?x11384) ?x2962) (= (stack_s x_0 x_1 x_SLOAD_0 4 ?x1344) ?x10424) (= ?x2039 (+ 3 ?x10820)) (= ?x4305 (bvadd (_ bv1 6) ?x275)) $x7970 $x6378 (= $x7172 $x6872) $x3631 (= (stack_s x_0 x_1 x_SLOAD_0 5 (bvadd (_ bv62 6) ?x4319)) ?x3062) $x9402 $x9960 $x9924 $x6570 $x6052 (= ?x8861 ?x6558) (= (stack_t x_0 x_1 x_SLOAD_0 1 ?x1388) ?x6558) $x4984 (= (used_gas_t x_0 x_1 x_SLOAD_0 1) (+ 3 ?x9715)) $x3228 $x4149 $x11429 (= $x8377 (or $x56 $x7311 (not (bvsle (_ bv0 6) ?x1388)))) (= ?x5277 ?x4526) (= (stack_t x_0 x_1 x_SLOAD_0 2 ?x549) ?x4526) $x11846 (= (stack_t x_0 x_1 x_SLOAD_0 2 ?x6967) ?x8861) (= ?x4979 (+ 3 (used_gas_t x_0 x_1 x_SLOAD_0 1))) $x2783 $x4221 $x11073 (= $x3470 (or (not (bvsle (_ bv0 6) ?x549)) $x4195 $x8377)) (= ?x11539 (stack_t x_0 x_1 x_SLOAD_0 2 (bvadd (_ bv61 6) ?x6158))) (= (stack_t x_0 x_1 x_SLOAD_0 3 (bvadd (_ bv61 6) ?x11304)) ?x5277) $x5663 (= ?x28 (+ 3 ?x4979)) $x10269 $x886 $x2281 $x5962 $x880 $x4862 (= ?x4818 ?x11304) $x2943 $x1924 $x11257 $x73 $x80 $x58 $x192 $x9266 (not (and $x5702 $x6653 $x1631 $x4253))))))))))))))))))))))))))))))))))))))))))))))))))))))))))))))))))))))))))))))))))))))))))))))))))))))))))))))
 )
(check-sat)
(get-proof)
